AES/1_2_8/ssaes_r1-20_c2_rw1_e8_f0_k1-20_aes_min_box_aes_mc_bidirectional/ExperimentMinisat_r6_k1cnf_2011-11-07-133844/Result
WARNING: for repeatability, setting FPU to use double precision
============================[ Problem Statistics ]=============================
|                                                                             |
|  Number of variables:           528                                         |
|  Number of clauses:            6508                                         |
|  Parse time:                   0.00 s                                       |
|  Eliminated clauses:           0.01 Mb                                      |
|  Simplification time:          0.02 s                                       |
|                                                                             |
=============================[ Search Statistics ]==============================
| Conflicts  |          ORIGINAL         |          LEARNT          | Progress |
|            |    Vars  Clauses Literals |    Limit  Clauses Lit/Cl |          |
================================================================================
|        100 |     336     6028    37078 |     2210      100     17 | 15.152 % |
|        250 |     336     6028    37078 |     2431      250     14 | 15.152 % |
|        475 |     336     6028    37078 |     2674      475     15 | 15.152 % |
|        812 |     336     6028    37078 |     2941      812     14 | 15.152 % |
|       1318 |     336     6028    37078 |     3236     1318     14 | 15.152 % |
|       2077 |     336     6028    37078 |     3559     2077     14 | 15.152 % |
|       3216 |     336     6028    37078 |     3915     3216     15 | 15.152 % |
|       4924 |     336     6028    37078 |     4307     2916     15 | 15.152 % |
|       7486 |     336     6028    37078 |     4737     3269     14 | 15.152 % |
|      11330 |     336     6028    37078 |     5211     4665     14 | 15.152 % |
|      17096 |     336     6028    37078 |     5732     5063     15 | 15.152 % |
|      25745 |     336     6028    37078 |     6306     4919     15 | 15.152 % |
|      38719 |     336     6028    37078 |     6936     5028     16 | 15.152 % |
|      58180 |     336     6028    37078 |     7630     6817     14 | 15.152 % |
|      87372 |     336     6028    37078 |     8393     4910     15 | 15.152 % |
|     131161 |     336     6028    37078 |     9232     6009     14 | 15.152 % |
|     196845 |     336     6028    37078 |    10156     6050     15 | 15.152 % |
|     295371 |     336     6028    37078 |    11171     6830     15 | 15.152 % |
|     443160 |     336     6028    37078 |    12288     7361     16 | 15.152 % |
|     664843 |     336     6028    37078 |    13517    11535     15 | 15.152 % |
|     997368 |     336     6028    37078 |    14869     9274     15 | 15.152 % |
|    1496156 |     336     6028    37078 |    16356    12605     14 | 15.152 % |
|    2244338 |     336     6028    37078 |    17992    10112     15 | 15.152 % |
|    3366612 |     336     6028    37078 |    19791    17411     14 | 15.152 % |
|    5050023 |     336     6028    37078 |    21770    16524     16 | 15.152 % |
|    7575139 |     336     6028    37078 |    23947    11147     18 | 15.152 % |
===============================================================================
restarts              : 14396
conflicts             : 8935733        (38678 /sec)
decisions             : 11484696       (0.00 % random) (49711 /sec)
propagations          : 204879735      (886811 /sec)
conflict literals     : 147254546      (8.08 % deleted)
Memory used           : 25.00 MB
CPU time              : 231.03 s

SATISFIABLE
